(declare-const r0 Real)
(declare-const r2 Real)
(declare-const r3 Real)
(declare-const r4 Real)
(declare-const r5 Real)
(declare-const r6 Real)
(declare-const r7 Real)
(declare-const r8 Real)
(declare-const r9 Real)
(declare-const r10 Real)
(declare-const v23 Bool)
(declare-const r11 Real)
(declare-const r12 Real)
(declare-const r13 Real)
(declare-const v27 Bool)
(declare-const r14 Real)
(declare-const r15 Real)
(declare-const r16 Real)
(declare-const r17 Real)
(declare-const r18 Real)
(assert (or v27 (> r10 (/ (+ (/ (- (- 40.0 40.0 r0 1.0)) (- r0)) 40.0 (/ (- 40.0 40.0 r0 1.0) r4) r3) (/ (- r0) 1.0)) (/ (* (- (- 40.0 40.0 r0 1.0)) 1.0 40.0) (- 40.0 40.0 r0 1.0)))))
(assert (or (<= r2 68814788.0) (> r10 (/ (+ (/ (- (- 40.0 40.0 r0 1.0)) (- r0)) 40.0 (/ (- 40.0 40.0 r0 1.0) r4) r3) (/ (- r0) 1.0)) (/ (* (- (- 40.0 40.0 r0 1.0)) 1.0 40.0) (- 40.0 40.0 r0 1.0))) (> r10 (/ (+ (/ (- (- 40.0 40.0 r0 1.0)) (- r0)) 40.0 (/ (- 40.0 40.0 r0 1.0) r4) r3) (/ (- r0) 1.0)) (/ (* (- (- 40.0 40.0 r0 1.0)) 1.0 40.0) (- 40.0 40.0 r0 1.0))) (<= r2 68814788.0)))
(assert (or v23 v27 (<= r2 68814788.0) v27 (<= r2 68814788.0) v23 v23))
(assert (or (<= r2 68814788.0) v23 (<= r2 68814788.0)))
(assert (or v23 (<= r2 68814788.0) (> r10 (/ (+ (/ (- (- 40.0 40.0 r0 1.0)) (- r0)) 40.0 (/ (- 40.0 40.0 r0 1.0) r4) r3) (/ (- r0) 1.0)) (/ (* (- (- 40.0 40.0 r0 1.0)) 1.0 40.0) (- 40.0 40.0 r0 1.0)))))
(assert (or (> r10 (/ (+ (/ (- (- 40.0 40.0 r0 1.0)) (- r0)) 40.0 (/ (- 40.0 40.0 r0 1.0) r4) r3) (/ (- r0) 1.0)) (/ (* (- (- 40.0 40.0 r0 1.0)) 1.0 40.0) (- 40.0 40.0 r0 1.0))) v23 (> r10 (/ (+ (/ (- (- 40.0 40.0 r0 1.0)) (- r0)) 40.0 (/ (- 40.0 40.0 r0 1.0) r4) r3) (/ (- r0) 1.0)) (/ (* (- (- 40.0 40.0 r0 1.0)) 1.0 40.0) (- 40.0 40.0 r0 1.0))) (<= r2 68814788.0) v27 (> r10 (/ (+ (/ (- (- 40.0 40.0 r0 1.0)) (- r0)) 40.0 (/ (- 40.0 40.0 r0 1.0) r4) r3) (/ (- r0) 1.0)) (/ (* (- (- 40.0 40.0 r0 1.0)) 1.0 40.0) (- 40.0 40.0 r0 1.0))) (<= r2 68814788.0) (> r10 (/ (+ (/ (- (- 40.0 40.0 r0 1.0)) (- r0)) 40.0 (/ (- 40.0 40.0 r0 1.0) r4) r3) (/ (- r0) 1.0)) (/ (* (- (- 40.0 40.0 r0 1.0)) 1.0 40.0) (- 40.0 40.0 r0 1.0)))))
(assert (or (<= r2 68814788.0) v27 (<= r2 68814788.0) v27))
(assert (or v27 v23))
(assert (or (> r10 (/ (+ (/ (- (- 40.0 40.0 r0 1.0)) (- r0)) 40.0 (/ (- 40.0 40.0 r0 1.0) r4) r3) (/ (- r0) 1.0)) (/ (* (- (- 40.0 40.0 r0 1.0)) 1.0 40.0) (- 40.0 40.0 r0 1.0))) (> r10 (/ (+ (/ (- (- 40.0 40.0 r0 1.0)) (- r0)) 40.0 (/ (- 40.0 40.0 r0 1.0) r4) r3) (/ (- r0) 1.0)) (/ (* (- (- 40.0 40.0 r0 1.0)) 1.0 40.0) (- 40.0 40.0 r0 1.0)))))
(check-sat)
